39
raw_data/rcpsp/DC2-npv75.xlsx rcpspdc399
Time limit set to 60 seconds
Running CP solver
/home/omastto1/General-Optimization-Solver/src/solvers/rcpsp.py:31(stream:95:6): Warning: Cumulative expression 'pulse': height is zero, expression is zero everywhere.
                                                                                            VarCumulAtom_238 = pulse("0", 0)
/home/omastto1/General-Optimization-Solver/src/solvers/rcpsp.py:31(stream:95:1212): Warning: Cumulative expression 'pulse': height is zero, expression is zero everywhere.
                                                                                               VarCumulAtom_314 = pulse("76", 0)
/home/omastto1/General-Optimization-Solver/src/solvers/rcpsp.py:31(stream:96:6): Warning: Cumulative expression 'pulse': height is zero, expression is zero everywhere.
                                                                                            VarCumulAtom_318 = pulse("0", 0)
/home/omastto1/General-Optimization-Solver/src/solvers/rcpsp.py:31(stream:96:1212): Warning: Cumulative expression 'pulse': height is zero, expression is zero everywhere.
                                                                                               VarCumulAtom_394 = pulse("76", 0)
/home/omastto1/General-Optimization-Solver/src/solvers/rcpsp.py:31(stream:97:6): Warning: Cumulative expression 'pulse': height is zero, expression is zero everywhere.
                                                                                            VarCumulAtom_398 = pulse("0", 0)
/home/omastto1/General-Optimization-Solver/src/solvers/rcpsp.py:31(stream:97:1212): Warning: Cumulative expression 'pulse': height is zero, expression is zero everywhere.
                                                                                               VarCumulAtom_474 = pulse("76", 0)
/home/omastto1/General-Optimization-Solver/src/solvers/rcpsp.py:31(stream:98:6): Warning: Cumulative expression 'pulse': height is zero, expression is zero everywhere.
                                                                                            VarCumulAtom_478 = pulse("0", 0)
/home/omastto1/General-Optimization-Solver/src/solvers/rcpsp.py:31(stream:98:1212): Warning: Cumulative expression 'pulse': height is zero, expression is zero everywhere.
                                                                                               VarCumulAtom_554 = pulse("76", 0)
 ! --------------------------------------------------- CP Optimizer 20.1.0.0 --
 ! Minimization problem - 78 variables, 462 constraints
 ! TimeLimit            = 60
 ! Workers              = 14
 ! LogVerbosity         = Terse
 ! Initial process time : 0.00s (0.00s extraction + 0.00s propagation)
 !  . Log search space  : 502.5 (before), 502.5 (after)
 !  . Memory usage      : 866.4 kB (before), 866.4 kB (after)
 ! Using parallel search with 14 workers.
 ! ----------------------------------------------------------------------------
 !          Best Branches  Non-fixed    W       Branch decision
                        0         78                 -
 + New bound is 29
 ! Using iterative diving.
 ! Using temporal relaxation.
 *           124      157  1.05s        1      (gap is 76.61%)
 *           123      313  1.05s        1      (gap is 76.42%)
 *           115      469  1.05s        1      (gap is 74.78%)
 *           113     1349  1.05s        1      (gap is 74.34%)
 *           112     1675  1.05s        1      (gap is 74.11%)
             112     4478          2    1            -
 + New bound is 95 (gap is 15.18%)
 ! Using failure-directed search.
 *           111     3166  1.05s        3      (gap is 14.41%)
 *           110     6368  1.05s        3      (gap is 13.64%)
 *           109     6839  1.05s        3      (gap is 12.84%)
 *           108    11991  3.19s       10      (gap is 12.04%)
 *           107    15979  4.30s        4      (gap is 11.21%)
 *           106    34414  7.49s        6      (gap is 10.38%)
 *           105    57283  12.81s       4      (gap is 9.52%)
 *           104    62946  16.09s      10      (gap is 8.65%)
 *           103     464k  39.06s      13      (gap is 7.77%)
 ! ----------------------------------------------------------------------------
 ! Search terminated by limit, 14 solutions found.
 ! Best objective         : 103 (gap is 7.77%)
 ! Best bound             : 95
 ! ----------------------------------------------------------------------------
 ! Number of branches     : 4678976
 ! Number of fails        : 1006537
 ! Total memory usage     : 13.3 MB (13.2 MB CP Optimizer + 0.1 MB Concert)
 ! Time spent in solve    : 60.02s (60.02s engine + 0.00s extraction)
 ! Search speed (br. / s) : 77969.9
 ! ----------------------------------------------------------------------------
(95,)
(0.0776699,)
(103,)
Objective value: 103
Solution is 5.1 % worse than the lower bound.
Feasible solution found
